p cnf 75 253
c p weight 30 -1 0
c p weight -30 1 0
c p weight 32 6.12323399573676603586882014729198302312846062338790031898128063403419218957424163818359375E-17 0
c p weight -32 1 0
c p weight 33 1 0
c p weight -33 1 0
c p weight 34 -1 0
c p weight -34 1 0
c p weight 36 -1 0
c p weight -36 1 0
c p weight 39 -1 0
c p weight -39 1 0
c p weight 42 -1 0
c p weight -42 1 0
c p weight 45 -1 0
c p weight -45 1 0
c p weight 48 -1 0
c p weight -48 1 0
c p weight 51 -1 0
c p weight -51 1 0
c p weight 54 -1 0
c p weight -54 1 0
c p weight 57 -1 0
c p weight -57 1 0
c p weight 60 -1 0
c p weight -60 1 0
c p weight 63 -1 0
c p weight -63 1 0
c p weight 66 -1 0
c p weight -66 1 0
c p weight 69 -1 0
c p weight -69 1 0
c p weight 72 -1 0
c p weight -72 1 0
c p weight 75 -1 0
c p weight -75 1 0
-27 0
-25 0
-23 0
-21 0
-19 0
-17 0
-15 0
-13 0
-11 0
-9 0
-7 0
-5 0
-3 0
-1 0
29 27 -28 0
29 -27 28 0
-29 27 28 0
-29 -27 -28 0
-30 27 0
-30 28 0
30 -27 -28 0
31 -27 29 0
-31 27 29 0
-32 29 0
31 -32 -27 0
-31 -32 27 0
31 32 27 -29 0
-31 32 -27 -29 0
-33 29 0
31 -33 27 0
-31 -33 -27 0
31 33 -27 -29 0
-31 33 27 -29 0
-34 31 0
-34 29 0
-34 -27 0
34 -31 27 -29 0
35 31 -29 0
35 -31 29 0
-35 31 29 0
-35 -31 -29 0
-36 31 0
-36 29 0
36 -31 -29 0
37 31 -25 0
37 -31 25 0
-37 31 25 0
-37 -31 -25 0
38 35 -26 0
38 -35 26 0
-38 35 26 0
-38 -35 -26 0
-39 31 0
-39 26 0
-39 25 -35 0
-39 -25 35 0
39 -31 25 35 -26 0
39 -31 -25 -35 -26 0
40 37 -23 0
40 -37 23 0
-40 37 23 0
-40 -37 -23 0
41 26 -24 0
41 -26 24 0
-41 26 24 0
-41 -26 -24 0
-42 37 0
-42 24 0
-42 23 -26 0
-42 -23 26 0
42 -37 23 26 -24 0
42 -37 -23 -26 -24 0
43 40 -21 0
43 -40 21 0
-43 40 21 0
-43 -40 -21 0
44 24 -22 0
44 -24 22 0
-44 24 22 0
-44 -24 -22 0
-45 40 0
-45 22 0
-45 21 -24 0
-45 -21 24 0
45 -40 21 24 -22 0
45 -40 -21 -24 -22 0
46 43 -19 0
46 -43 19 0
-46 43 19 0
-46 -43 -19 0
47 22 -20 0
47 -22 20 0
-47 22 20 0
-47 -22 -20 0
-48 43 0
-48 20 0
-48 19 -22 0
-48 -19 22 0
48 -43 19 22 -20 0
48 -43 -19 -22 -20 0
49 46 -17 0
49 -46 17 0
-49 46 17 0
-49 -46 -17 0
50 20 -18 0
50 -20 18 0
-50 20 18 0
-50 -20 -18 0
-51 46 0
-51 18 0
-51 17 -20 0
-51 -17 20 0
51 -46 17 20 -18 0
51 -46 -17 -20 -18 0
52 49 -15 0
52 -49 15 0
-52 49 15 0
-52 -49 -15 0
53 18 -16 0
53 -18 16 0
-53 18 16 0
-53 -18 -16 0
-54 49 0
-54 16 0
-54 15 -18 0
-54 -15 18 0
54 -49 15 18 -16 0
54 -49 -15 -18 -16 0
55 52 -13 0
55 -52 13 0
-55 52 13 0
-55 -52 -13 0
56 16 -14 0
56 -16 14 0
-56 16 14 0
-56 -16 -14 0
-57 52 0
-57 14 0
-57 13 -16 0
-57 -13 16 0
57 -52 13 16 -14 0
57 -52 -13 -16 -14 0
58 55 -11 0
58 -55 11 0
-58 55 11 0
-58 -55 -11 0
59 14 -12 0
59 -14 12 0
-59 14 12 0
-59 -14 -12 0
-60 55 0
-60 12 0
-60 11 -14 0
-60 -11 14 0
60 -55 11 14 -12 0
60 -55 -11 -14 -12 0
61 58 -9 0
61 -58 9 0
-61 58 9 0
-61 -58 -9 0
62 12 -10 0
62 -12 10 0
-62 12 10 0
-62 -12 -10 0
-63 58 0
-63 10 0
-63 9 -12 0
-63 -9 12 0
63 -58 9 12 -10 0
63 -58 -9 -12 -10 0
64 61 -7 0
64 -61 7 0
-64 61 7 0
-64 -61 -7 0
65 10 -8 0
65 -10 8 0
-65 10 8 0
-65 -10 -8 0
-66 61 0
-66 8 0
-66 7 -10 0
-66 -7 10 0
66 -61 7 10 -8 0
66 -61 -7 -10 -8 0
67 64 -5 0
67 -64 5 0
-67 64 5 0
-67 -64 -5 0
68 8 -6 0
68 -8 6 0
-68 8 6 0
-68 -8 -6 0
-69 64 0
-69 6 0
-69 5 -8 0
-69 -5 8 0
69 -64 5 8 -6 0
69 -64 -5 -8 -6 0
70 67 -3 0
70 -67 3 0
-70 67 3 0
-70 -67 -3 0
71 6 -4 0
71 -6 4 0
-71 6 4 0
-71 -6 -4 0
-72 67 0
-72 4 0
-72 3 -6 0
-72 -3 6 0
72 -67 3 6 -4 0
72 -67 -3 -6 -4 0
73 70 -1 0
73 -70 1 0
-73 70 1 0
-73 -70 -1 0
74 4 -2 0
74 -4 2 0
-74 4 2 0
-74 -4 -2 0
-75 70 0
-75 2 0
-75 1 -4 0
-75 -1 4 0
75 -70 1 4 -2 0
75 -70 -1 -4 -2 0
-73 0
-70 0
-74 0
-67 0
-71 0
-64 0
-68 0
-61 0
-65 0
-58 0
-62 0
-55 0
-59 0
-52 0
-56 0
-49 0
-53 0
-46 0
-50 0
-43 0
-47 0
-40 0
-44 0
-37 0
-41 0
-31 0
-38 0
